p tw 30 45
1 6
1 7
1 25
2 9
2 10
2 17
3 7
3 20
3 29
4 8
4 13
4 16
5 15
5 22
5 23
6 11
6 13
7 27
8 16
8 23
9 26
9 28
10 19
10 26
11 16
11 29
12 22
12 26
12 28
13 21
14 17
14 21
14 27
15 18
15 25
17 20
18 21
18 25
19 24
19 28
20 30
22 24
23 30
24 29
27 30
